
Gurobi 8.1.1 (mac64, Python) logging started Tue Sep 17 01:51:14 2019

Academic license - for non-commercial use only
Optimize a model with 4 rows, 3 columns and 6 nonzeros
Model has 3 quadratic constraints
Coefficient statistics:
  Matrix range     [1e+00, 1e+00]
  QMatrix range    [1e-03, 5e-03]
  QLMatrix range   [4e-02, 3e-01]
  Objective range  [1e-02, 7e-02]
  Bounds range     [0e+00, 0e+00]
  RHS range        [2e+01, 1e+02]
  QRHS range       [5e-01, 1e+00]
Presolve removed 3 rows and 0 columns
Presolve time: 0.00s
Presolved: 9 rows, 9 columns, 20 nonzeros
Presolved model has 2 second-order coqne constraints
Ordering time: 0.00s

Barrier statistics:
 AA' NZ     : 3.000e+01
 Factor NZ  : 4.500e+01
 Factor Ops : 2.850e+02 (less than 1 second per iteration)
 Threads    : 1

                  Objective                Residual
Iter       Primal          Dual         Primal    Dual     Compl     Time
   0   8.46540379e+00  3.49174759e+00  7.00e+00 2.55e-01  1.12e+00     0s
   1   5.23347525e+00  4.29493356e+00  1.07e+00 2.80e-07  1.62e-01     0s
   2   5.35630090e+00  5.05042658e+00  3.92e-02 2.93e-08  2.91e-02     0s
   3   5.35756091e+00  5.35337917e+00  4.31e-08 1.41e-10  3.48e-04     0s
   4   5.35683772e+00  5.35681678e+00  1.89e-13 1.57e-13  1.75e-06     0s
   5   5.35683546e+00  5.35683226e+00  9.48e-13 8.88e-16  2.67e-07     0s

Barrier solved model in 5 iterations and 0.00 seconds
Optimal objective 5.35683546e+00


Gurobi 8.1.1 (mac64, Python) logging started Tue Sep 17 01:52:43 2019

Academic license - for non-commercial use only
Optimize a model with 4 rows, 3 columns and 6 nonzeros
Model has 3 quadratic constraints
Coefficient statistics:
  Matrix range     [1e+00, 1e+00]
  QMatrix range    [1e-03, 5e-03]
  QLMatrix range   [4e-02, 3e-01]
  Objective range  [1e-02, 7e-02]
  Bounds range     [0e+00, 0e+00]
  RHS range        [2e+01, 1e+02]
  QRHS range       [5e-01, 1e+00]
Presolve removed 3 rows and 0 columns
Presolve time: 0.00s
Presolved: 9 rows, 9 columns, 20 nonzeros
Presolved model has 2 second-order cone constraints
Ordering time: 0.00s

Barrier statistics:
 AA' NZ     : 3.000e+01
 Factor NZ  : 4.500e+01
 Factor Ops : 2.850e+02 (less than 1 second per iteration)
 Threads    : 1

                  Objective                Residual
Iter       Primal          Dual         Primal    Dual     Compl     Time
   0   8.46540379e+00  3.49174759e+00  7.00e+00 2.55e-01  1.12e+00     0s
   1   5.23347525e+00  4.29493356e+00  1.07e+00 2.80e-07  1.62e-01     0s
   2   5.35630090e+00  5.05042658e+00  3.92e-02 2.93e-08  2.91e-02     0s
   3   5.35756091e+00  5.35337917e+00  4.31e-08 1.41e-10  3.48e-04     0s
   4   5.35683772e+00  5.35681678e+00  1.89e-13 1.57e-13  1.75e-06     0s
   5   5.35683546e+00  5.35683226e+00  9.48e-13 8.88e-16  2.67e-07     0s

Barrier solved model in 5 iterations and 0.00 seconds
Optimal objective 5.35683546e+00


Gurobi 8.1.1 (mac64, Python) logging started Tue Sep 17 01:53:52 2019

Academic license - for non-commercial use only
Optimize a model with 4 rows, 3 columns and 6 nonzeros
Model has 3 quadratic constraints
Coefficient statistics:
  Matrix range     [1e+00, 1e+00]
  QMatrix range    [1e-03, 5e-03]
  QLMatrix range   [4e-02, 3e-01]
  Objective range  [1e-02, 7e-02]
  Bounds range     [0e+00, 0e+00]
  RHS range        [2e+01, 1e+02]
  QRHS range       [5e-01, 1e+00]
Presolve removed 3 rows and 0 columns
Presolve time: 0.00s
Presolved: 9 rows, 9 columns, 20 nonzeros
Presolved model has 2 second-order cone constraints
Ordering time: 0.00s

Barrier statistics:
 AA' NZ     : 3.000e+01
 Factor NZ  : 4.500e+01
 Factor Ops : 2.850e+02 (less than 1 second per iteration)
 Threads    : 1

                  Objective                Residual
Iter       Primal          Dual         Primal    Dual     Compl     Time
   0   8.46540379e+00  3.49174759e+00  7.00e+00 2.55e-01  1.12e+00     0s
   1   5.23347525e+00  4.29493356e+00  1.07e+00 2.80e-07  1.62e-01     0s
   2   5.35630090e+00  5.05042658e+00  3.92e-02 2.93e-08  2.91e-02     0s
   3   5.35756091e+00  5.35337917e+00  4.31e-08 1.41e-10  3.48e-04     0s
   4   5.35683772e+00  5.35681678e+00  1.89e-13 1.57e-13  1.75e-06     0s
   5   5.35683546e+00  5.35683226e+00  9.48e-13 8.88e-16  2.67e-07     0s

Barrier solved model in 5 iterations and 0.00 seconds
Optimal objective 5.35683546e+00


Gurobi 8.1.1 (mac64, Python) logging started Tue Sep 17 01:54:01 2019

Academic license - for non-commercial use only
Optimize a model with 4 rows, 3 columns and 6 nonzeros
Model has 3 quadratic constraints
Coefficient statistics:
  Matrix range     [1e+00, 1e+00]
  QMatrix range    [1e-03, 5e-03]
  QLMatrix range   [4e-02, 3e-01]
  Objective range  [1e-02, 7e-02]
  Bounds range     [0e+00, 0e+00]
  RHS range        [2e+01, 1e+02]
  QRHS range       [5e-01, 1e+00]
Presolve removed 3 rows and 0 columns
Presolve time: 0.00s
Presolved: 9 rows, 9 columns, 20 nonzeros
Presolved model has 2 second-order cone constraints
Ordering time: 0.00s

Barrier statistics:
 AA' NZ     : 3.000e+01
 Factor NZ  : 4.500e+01
 Factor Ops : 2.850e+02 (less than 1 second per iteration)
 Threads    : 1

                  Objective                Residual
Iter       Primal          Dual         Primal    Dual     Compl     Time
   0   8.46540379e+00  3.49174759e+00  7.00e+00 2.55e-01  1.12e+00     0s
   1   5.23347525e+00  4.29493356e+00  1.07e+00 2.80e-07  1.62e-01     0s
   2   5.35630090e+00  5.05042658e+00  3.92e-02 2.93e-08  2.91e-02     0s
   3   5.35756091e+00  5.35337917e+00  4.31e-08 1.41e-10  3.48e-04     0s
   4   5.35683772e+00  5.35681678e+00  1.89e-13 1.57e-13  1.75e-06     0s
   5   5.35683546e+00  5.35683226e+00  9.48e-13 8.88e-16  2.67e-07     0s

Barrier solved model in 5 iterations and 0.00 seconds
Optimal objective 5.35683546e+00


Gurobi 8.1.1 (mac64, Python) logging started Tue Sep 17 02:26:48 2019

Academic license - for non-commercial use only
Optimize a model with 4 rows, 3 columns and 6 nonzeros
Model has 3 quadratic constraints
Coefficient statistics:
  Matrix range     [1e+00, 1e+00]
  QMatrix range    [1e-03, 5e-03]
  QLMatrix range   [4e-02, 3e-01]
  Objective range  [1e-02, 7e-02]
  Bounds range     [0e+00, 0e+00]
  RHS range        [2e+01, 1e+02]
  QRHS range       [5e-01, 1e+00]
Presolve removed 3 rows and 0 columns
Presolve time: 0.00s
Presolved: 9 rows, 9 columns, 20 nonzeros
Presolved model has 2 second-order cone constraints
Ordering time: 0.00s

Barrier statistics:
 AA' NZ     : 3.000e+01
 Factor NZ  : 4.500e+01
 Factor Ops : 2.850e+02 (less than 1 second per iteration)
 Threads    : 1

                  Objective                Residual
Iter       Primal          Dual         Primal    Dual     Compl     Time
   0   8.46540379e+00  3.49174759e+00  7.00e+00 2.55e-01  1.12e+00     0s
   1   5.23347525e+00  4.29493356e+00  1.07e+00 2.80e-07  1.62e-01     0s
   2   5.35630090e+00  5.05042658e+00  3.92e-02 2.93e-08  2.91e-02     0s
   3   5.35756091e+00  5.35337917e+00  4.31e-08 1.41e-10  3.48e-04     0s
   4   5.35683772e+00  5.35681678e+00  1.89e-13 1.57e-13  1.75e-06     0s
   5   5.35683546e+00  5.35683226e+00  9.48e-13 8.88e-16  2.67e-07     0s

Barrier solved model in 5 iterations and 0.00 seconds
Optimal objective 5.35683546e+00


Gurobi 8.1.1 (mac64, Python) logging started Tue Sep 17 02:27:12 2019

Academic license - for non-commercial use only
Optimize a model with 4 rows, 3 columns and 6 nonzeros
Model has 3 quadratic constraints
Coefficient statistics:
  Matrix range     [1e+00, 1e+00]
  QMatrix range    [1e-03, 5e-03]
  QLMatrix range   [4e-02, 3e-01]
  Objective range  [1e-02, 7e-02]
  Bounds range     [0e+00, 0e+00]
  RHS range        [2e+01, 1e+02]
  QRHS range       [5e-01, 1e+00]
Presolve removed 3 rows and 0 columns
Presolve time: 0.00s
Presolved: 9 rows, 9 columns, 20 nonzeros
Presolved model has 2 second-order cone constraints
Ordering time: 0.00s

Barrier statistics:
 AA' NZ     : 3.000e+01
 Factor NZ  : 4.500e+01
 Factor Ops : 2.850e+02 (less than 1 second per iteration)
 Threads    : 1

                  Objective                Residual
Iter       Primal          Dual         Primal    Dual     Compl     Time
   0   8.46540379e+00  3.49174759e+00  7.00e+00 2.55e-01  1.12e+00     0s
   1   5.23347525e+00  4.29493356e+00  1.07e+00 2.80e-07  1.62e-01     0s
   2   5.35630090e+00  5.05042658e+00  3.92e-02 2.93e-08  2.91e-02     0s
   3   5.35756091e+00  5.35337917e+00  4.31e-08 1.41e-10  3.48e-04     0s
   4   5.35683772e+00  5.35681678e+00  1.89e-13 1.57e-13  1.75e-06     0s
   5   5.35683546e+00  5.35683226e+00  9.48e-13 8.88e-16  2.67e-07     0s

Barrier solved model in 5 iterations and 0.00 seconds
Optimal objective 5.35683546e+00


Gurobi 8.1.1 (mac64, Python) logging started Tue Sep 17 10:44:15 2019

Academic license - for non-commercial use only
Optimize a model with 4 rows, 3 columns and 6 nonzeros
Model has 3 quadratic constraints
Coefficient statistics:
  Matrix range     [1e+00, 1e+00]
  QMatrix range    [1e-03, 5e-03]
  QLMatrix range   [4e-02, 3e-01]
  Objective range  [1e-02, 7e-02]
  Bounds range     [0e+00, 0e+00]
  RHS range        [2e+01, 1e+02]
  QRHS range       [5e-01, 1e+00]
Presolve removed 3 rows and 0 columns
Presolve time: 0.00s
Presolved: 9 rows, 9 columns, 20 nonzeros
Presolved model has 2 second-order cone constraints
Ordering time: 0.00s

Barrier statistics:
 AA' NZ     : 3.000e+01
 Factor NZ  : 4.500e+01
 Factor Ops : 2.850e+02 (less than 1 second per iteration)
 Threads    : 1

                  Objective                Residual
Iter       Primal          Dual         Primal    Dual     Compl     Time
   0   8.46540379e+00  3.49174759e+00  7.00e+00 2.55e-01  1.12e+00     0s
   1   5.23347525e+00  4.29493356e+00  1.07e+00 2.80e-07  1.62e-01     0s
   2   5.35630090e+00  5.05042658e+00  3.92e-02 2.93e-08  2.91e-02     0s
   3   5.35756091e+00  5.35337917e+00  4.31e-08 1.41e-10  3.48e-04     0s
   4   5.35683772e+00  5.35681678e+00  1.89e-13 1.57e-13  1.75e-06     0s
   5   5.35683546e+00  5.35683226e+00  9.48e-13 8.88e-16  2.67e-07     0s

Barrier solved model in 5 iterations and 0.00 seconds
Optimal objective 5.35683546e+00


Gurobi 8.1.1 (mac64, Python) logging started Tue Sep 17 10:44:20 2019

Academic license - for non-commercial use only
Optimize a model with 4 rows, 3 columns and 6 nonzeros
Model has 3 quadratic constraints
Coefficient statistics:
  Matrix range     [1e+00, 1e+00]
  QMatrix range    [1e-03, 5e-03]
  QLMatrix range   [4e-02, 3e-01]
  Objective range  [1e-02, 7e-02]
  Bounds range     [0e+00, 0e+00]
  RHS range        [2e+01, 1e+02]
  QRHS range       [5e-01, 1e+00]
Presolve removed 3 rows and 0 columns
Presolve time: 0.00s
Presolved: 9 rows, 9 columns, 20 nonzeros
Presolved model has 2 second-order cone constraints
Ordering time: 0.00s

Barrier statistics:
 AA' NZ     : 3.000e+01
 Factor NZ  : 4.500e+01
 Factor Ops : 2.850e+02 (less than 1 second per iteration)
 Threads    : 1

                  Objective                Residual
Iter       Primal          Dual         Primal    Dual     Compl     Time
   0   8.46540379e+00  3.49174759e+00  7.00e+00 2.55e-01  1.12e+00     0s
   1   5.23347525e+00  4.29493356e+00  1.07e+00 2.80e-07  1.62e-01     0s
   2   5.35630090e+00  5.05042658e+00  3.92e-02 2.93e-08  2.91e-02     0s
   3   5.35756091e+00  5.35337917e+00  4.31e-08 1.41e-10  3.48e-04     0s
   4   5.35683772e+00  5.35681678e+00  1.89e-13 1.57e-13  1.75e-06     0s
   5   5.35683546e+00  5.35683226e+00  9.48e-13 8.88e-16  2.67e-07     0s

Barrier solved model in 5 iterations and 0.00 seconds
Optimal objective 5.35683546e+00


Gurobi 8.1.1 (mac64, Python) logging started Tue Sep 17 10:45:31 2019

Academic license - for non-commercial use only
Optimize a model with 4 rows, 3 columns and 6 nonzeros
Model has 3 quadratic constraints
Coefficient statistics:
  Matrix range     [1e+00, 1e+00]
  QMatrix range    [1e-03, 5e-03]
  QLMatrix range   [4e-02, 3e-01]
  Objective range  [1e-02, 7e-02]
  Bounds range     [0e+00, 0e+00]
  RHS range        [2e+01, 1e+02]
  QRHS range       [5e-01, 1e+00]
Presolve removed 3 rows and 0 columns
Presolve time: 0.00s
Presolved: 9 rows, 9 columns, 20 nonzeros
Presolved model has 2 second-order cone constraints
Ordering time: 0.00s

Barrier statistics:
 AA' NZ     : 3.000e+01
 Factor NZ  : 4.500e+01
 Factor Ops : 2.850e+02 (less than 1 second per iteration)
 Threads    : 1

                  Objective                Residual
Iter       Primal          Dual         Primal    Dual     Compl     Time
   0   8.46540379e+00  3.49174759e+00  7.00e+00 2.55e-01  1.12e+00     0s
   1   5.23347525e+00  4.29493356e+00  1.07e+00 2.80e-07  1.62e-01     0s
   2   5.35630090e+00  5.05042658e+00  3.92e-02 2.93e-08  2.91e-02     0s
   3   5.35756091e+00  5.35337917e+00  4.31e-08 1.41e-10  3.48e-04     0s
   4   5.35683772e+00  5.35681678e+00  1.89e-13 1.57e-13  1.75e-06     0s
   5   5.35683546e+00  5.35683226e+00  9.48e-13 8.88e-16  2.67e-07     0s

Barrier solved model in 5 iterations and 0.00 seconds
Optimal objective 5.35683546e+00

